c turning on binary mode checking
c parsing input formula with 259840 variables and 1039924 clauses
c finished parsing, read 23321446 bytes from proof file
c detected empty clause; start verification via backward checking
c 12088 of 1039924 clauses in core                            
c 13605 of 607340 lemmas in core using 95848 resolution steps
c 0 RAT lemmas in core; 718 redundant literals in core lemmas
s VERIFIED
c verification time: 2.786 seconds
